/*********************************************
 * OPL 12.6.0.0 Data
 * Author: Adrian Rodriguez Bazaga, Pau Rodriguez Esmerats
 * Creation Date: 01/12/2017 at 05:00:18
 *********************************************/

nNurses=929;
maxConsec=2;
maxPresence=7;
maxHours=5;
minHours=1;
demand= [171 186 275 273 186 275 273 194 202 119 15 26 22 37 35 29 29 20 20 11 146 276 143 212  ];
